CMD:
./solvers/bin/cadical --plain --no-reduce -t 1600 ./data/cnfs//oski15a01b43s/oski15a01b43s.91.cnf

c --- [ banner ] -------------------------------------------------------------
c 
c CaDiCaL SAT Solver
c Copyright (c) 2016-2024
c A. Biere, M. Fleury, N. Froleyks, K. Fazekas, F. Pollitt, T. Faller
c JKU Linz, University of Freiburg, TU Wien
c 
c Version 2.1.3 5296d3d2a9bf48c154ab2acb5e44625776d821bf
c g++ (Gentoo 12.3.1_p20230526 p2) 12.3.1 20230526 -Wall -Wextra -O3 -DNDEBUG
c Sat Aug 9 07:26:21 PDT 2025 Linux cedar2.int.cedar.computecanada.ca 5.14.0-362.24.2.el9_3.x86_64 x86_64
c 
c --- [ limit ] --------------------------------------------------------------
c 
c setting time limit to 1600 seconds real time (due to '-t 1600')
c 
c --- [ parsing input ] ------------------------------------------------------
c 
c reading DIMACS file from './data/cnfs//oski15a01b43s/oski15a01b43s.91.cnf'
c opening file to read './data/cnfs//oski15a01b43s/oski15a01b43s.91.cnf'
c found 'p cnf 29611432 84611711' header
c parsed 84611711 clauses in 15.50 seconds process time
c 
c --- [ options ] ------------------------------------------------------------
c 
c   --compact=false                (different from default 'true')
c   --decompose=false              (different from default 'true')
c   --deduplicate=false            (different from default 'true')
c   --elim=false                   (different from default 'true')
c   --probe=false                  (different from default 'true')
c   --reduce=false                 (different from default 'true')
c   --subsume=false                (different from default 'true')
c   --ternary=false                (different from default 'true')
c   --transred=false               (different from default 'true')
c   --vivify=false                 (different from default 'true')
c 
c --- [ solving ] ------------------------------------------------------------
c 
c time measured in process time since initialization
c 
c  seconds     reductions  redundant   irredundant
c           MB     restarts       trail          variables
c             level   conflicts       glue              remaining
c 
c * 15.50 12780  0 0   0    0    0  0% 0 81190337 24370606 82%
c { 20.97 12981  0 0   0    0    0  0% 0 81190337 24370606 82%
c i 27.38 12996 8877 0  23  129  128 21% 3 81190337 24370605 82%
c i 27.38 12996 8810 0  24  130  128 21% 3 81190337 24370604 82%
c i 27.38 12996 8429 0  24  137  132 21% 3 81190337 24370603 82%
c i 27.38 12996 8192 0  24  141  134 21% 3 81190337 24370602 82%
c i 27.38 12996 7657 0  24  154  141 21% 3 81190337 24370601 82%
c i 27.38 12996 7462 0  24  158  143 21% 3 81190337 24370600 82%
c i 27.39 12996 6934 0  24  173  152 21% 3 81190337 24370599 82%
c i 27.39 12996 6775 0  24  177  154 21% 3 81190337 24370598 82%
c i 27.39 12996 6338 0  24  192  163 20% 3 81190337 24370597 82%
c i 27.39 12996 6205 0  24  196  165 20% 3 81190337 24370596 82%
c i 27.40 12996 5838 0  24  211  174 20% 3 81190337 24370595 82%
c i 27.40 12996 5726 0  24  215  176 20% 3 81190337 24370594 82%
c i 27.40 12996 5413 0  24  230  185 20% 3 81190337 24370593 82%
c i 27.40 12996 5316 0  24  234  187 20% 3 81190337 24370592 82%
c i 27.41 12996 5089 0  24  247  194 20% 3 81190337 24370591 82%
c i 27.41 12996 5004 0  24  251  196 20% 3 81190337 24370590 82%
c i 27.41 12996 4803 0  24  264  203 20% 3 81190337 24370589 82%
c i 27.41 12996 4727 0  24  268  205 20% 3 81190337 24370588 82%
c 
c  seconds       reductions  redundant   irredundant
c           MB       restarts       trail          variables
c              level    conflicts       glue              remaining
c 
c i 27.42 12996 4547 0  24  281  212 20% 2 81190337 24370587 82%
c i 27.42 12996 4479 0  24  285  214 20% 2 81190337 24370586 82%
c i 27.42 12996 4318 0  24  298  221 20% 2 81190337 24370585 82%
c i 27.42 12996 4257 0  24  302  223 20% 2 81190337 24370584 82%
c i 27.42 12997 4112 0  24  315  230 20% 2 81190337 24370583 82%
c i 27.42 12997 4056 0  24  319  232 20% 2 81190337 24370582 82%
c i 27.43 12997 3924 0  24  332  239 20% 2 81190337 24370581 82%
c i 27.43 12997 3874 0  24  336  241 20% 2 81190337 24370580 82%
c i 27.43 12997 3753 0  24  349  248 20% 2 81190337 24370579 82%
c i 27.43 12997 3707 0  24  353  250 20% 2 81190337 24370578 82%
c i 27.44 12997 3597 0  24  366  257 19% 2 81190337 24370577 82%
c i 27.44 12997 3555 0  24  370  259 19% 2 81190337 24370576 82%
c i 27.44 12997 3453 0  24  383  266 19% 2 81190337 24370575 82%
c i 27.44 12997 3414 0  24  387  268 19% 2 81190337 24370574 82%
c i 27.44 12997 3321 0  24  400  275 19% 2 81190337 24370573 82%
c i 27.44 12997 3285 0  24  404  277 19% 2 81190337 24370572 82%
c i 27.44 12997 3199 0  24  417  284 19% 2 81190337 24370571 82%
c i 27.44 12997 3165 0  24  421  286 19% 2 81190337 24370570 82%
c i 27.44 12997 3085 0  24  434  293 19% 2 81190337 24370569 82%
c i 27.45 12997 3054 0  24  438  295 19% 2 81190337 24370568 82%
c 
c  seconds       reductions  redundant   irredundant
c           MB       restarts       trail          variables
c              level    conflicts       glue              remaining
c 
c i 27.45 12997 2979 0  24  451  302 19% 2 81190337 24370567 82%
c i 27.45 12997 2950 0  24  455  304 19% 2 81190337 24370566 82%
c i 27.45 12997 2880 0  24  468  311 19% 2 81190337 24370565 82%
c i 27.45 12997 2853 0  24  472  313 19% 2 81190337 24370564 82%
... skipped 2437 lines ...
c i 150.57 15226 199 0 4557 74081 60296 18% 3 69091231 24343235 82%
c i 150.58 15226 199 0 4559 74090 60303 18% 3 69091231 24342988 82%
c i 150.62 15226 199 0 4565 74129 60339 18% 3 69091231 24342795 82%
c i 150.97 15226 198 0 4634 74408 60596 18% 3 69091231 24342791 82%
c 
c  seconds       reductions     redundant   irredundant
c            MB      restarts          trail          variables
c               level     conflicts        glue              remaining
c 
c i 150.97 15226 198 0 4634 74413 60598 18% 3 69091231 24342782 82%
c i 151.04 15226 198 0 4641 74439 60622 18% 3 69091231 24342780 82%
c i 151.53 15226 199 0 4666 74524 60705 18% 3 69091231 24342770 82%
c i 151.62 15226 199 0 4679 74582 60758 18% 3 69091231 24342767 82%
c i 151.65 15226 199 0 4680 74610 60784 18% 3 69091231 24342764 82%
c i 151.65 15226 199 0 4680 74611 60784 18% 3 69091231 24342761 82%
c i 151.65 15226 199 0 4680 74612 60784 18% 3 69091231 24342758 82%
c i 151.65 15226 199 0 4680 74613 60784 18% 3 69091231 24342756 82%
c i 151.65 15226 199 0 4680 74614 60784 18% 3 69091231 24342754 82%
c i 151.65 15226 199 0 4680 74616 60784 18% 3 69091231 24342746 82%
c i 151.65 15226 199 0 4680 74617 60784 18% 3 69091231 24342744 82%
c i 151.68 15226 199 0 4682 74674 60836 18% 3 69091231 24342734 82%
c i 152.16 15226 200 0 4724 74895 61035 18% 3 69091231 24342733 82%
c i 152.38 15226 199 0 4769 75066 61188 18% 3 69091231 24342730 82%
c i 152.50 15226 199 0 4777 75091 61212 18% 3 69091231 24342729 82%
c i 152.50 15226 199 0 4779 75106 61222 18% 3 69091231 24342723 82%
c i 152.50 15226 199 0 4780 75108 61223 18% 3 69091231 24342717 82%
c i 152.50 15226 199 0 4781 75110 61224 18% 3 69091231 24342714 82%
c i 152.51 15226 199 0 4783 75117 61229 18% 3 69091231 24342711 82%
c i 152.51 15226 199 0 4783 75118 61229 18% 3 69091231 24342708 82%
c 
c  seconds       reductions     redundant   irredundant
c            MB      restarts          trail          variables
c               level     conflicts        glue              remaining
c 
c i 152.51 15226 199 0 4783 75119 61229 18% 3 69091231 24342706 82%
c i 152.51 15226 199 0 4784 75120 61229 18% 3 69091231 24342703 82%
c i 152.51 15226 199 0 4784 75121 61229 18% 3 69091231 24342700 82%
c i 152.51 15226 199 0 4784 75122 61229 18% 3 69091231 24342698 82%
c i 152.51 15226 199 0 4785 75123 61229 18% 3 69091231 24342695 82%
c i 152.51 15226 199 0 4785 75124 61229 18% 3 69091231 24342692 82%
c i 152.51 15226 199 0 4785 75125 61229 18% 3 69091231 24342690 82%
c i 152.51 15226 199 0 4785 75126 61229 18% 3 69091231 24342687 82%
c i 152.51 15226 199 0 4785 75127 61229 18% 3 69091231 24342684 82%
c i 152.51 15226 199 0 4785 75128 61229 18% 3 69091231 24342681 82%
c i 152.51 15226 199 0 4785 75129 61229 18% 3 69091231 24342678 82%
c i 152.51 15226 199 0 4785 75130 61229 18% 3 69091231 24342675 82%
c i 152.51 15226 199 0 4785 75131 61229 18% 3 69091231 24342672 82%
c i 152.51 15226 199 0 4785 75132 61229 18% 3 69091231 24342669 82%
c i 152.51 15226 199 0 4785 75133 61229 18% 3 69091231 24342666 82%
c i 152.61 15226 199 0 4798 75198 61291 18% 3 69091231 24342651 82%
c i 152.61 15226 199 0 4798 75205 61293 18% 3 69091231 24342640 82%
c i 152.74 15226 198 0 4827 75310 61391 18% 3 69091231 24342636 82%
c i 152.76 15226 198 0 4830 75324 61402 18% 3 69091231 24342597 82%
c i 153.00 15226 198 0 4891 75543 61610 18% 3 69091231 24342592 82%
c 
c  seconds       reductions     redundant   irredundant
c            MB      restarts          trail          variables
c               level     conflicts        glue              remaining
c 
c i 153.03 15226 197 0 4894 75589 61647 18% 3 69091231 24342589 82%
c i 153.44 15226 197 0 4960 75848 61883 18% 3 69091231 24342586 82%
c i 153.47 15226 197 0 4967 75881 61914 18% 3 69091231 24342577 82%
c i 153.72 15226 197 0 4997 76004 62029 18% 3 69091231 24342571 82%
c i 153.75 15226 197 0 5001 76055 62072 18% 3 69091231 24342538 82%
c i 153.75 15226 197 0 5001 76058 62073 18% 3 69091231 24342478 82%
c i 153.75 15226 197 0 5001 76059 62073 18% 3 69091231 24342475 82%
c i 153.75 15226 197 0 5001 76065 62077 18% 3 69091231 24342467 82%
c i 153.75 15226 197 0 5001 76066 62077 18% 3 69091231 24342413 82%
c i 153.77 15226 196 0 5003 76137 62140 18% 3 69091231 24342407 82%
c i 154.06 15226 196 0 5051 76357 62343 18% 3 69091231 24342405 82%
c i 154.08 15226 196 0 5055 76370 62354 18% 3 69091231 24342392 82%
c i 154.08 15226 196 0 5055 76371 62354 18% 3 69091231 24342389 82%
c i 154.21 15226 196 0 5080 76477 62447 18% 3 69091231 24342388 82%
c i 154.54 15226 195 0 5145 76707 62651 18% 3 69091231 24342382 82%
c i 154.54 15226 195 0 5145 76710 62653 18% 3 69091231 24342376 82%
c i 154.63 15226 195 0 5166 76793 62727 18% 3 69091231 24342373 82%
c i 154.89 15226 195 0 5199 76915 62840 18% 3 69091231 24342371 82%
c i 155.03 15226 195 0 5223 77007 62927 18% 3 69091231 24342367 82%
c i 155.03 15226 195 0 5224 77012 62931 18% 3 69091231 24342355 82%
c 
c  seconds       reductions     redundant   irredundant
c            MB      restarts          trail          variables
c               level     conflicts        glue              remaining
c 
c i 155.03 15226 194 0 5227 77024 62940 18% 3 69091231 24342352 82%
c i 155.03 15226 194 0 5227 77025 62940 18% 3 69091231 24342349 82%
c i 155.03 15226 194 0 5227 77029 62942 18% 3 69091231 24342346 82%
c i 155.06 15226 194 0 5240 77072 62981 18% 3 69091231 24342343 82%
c i 155.33 15226 194 0 5288 77271 63158 18% 3 69091231 24342335 82%
c i 155.34 15226 194 0 5289 77272 63158 18% 3 69091231 24342331 82%
c i 155.48 15226 196 0 5300 77392 63270 18% 3 69091231 24342325 82%
c i 155.65 15226 198 0 5331 77611 63478 18% 3 69091231 24342232 82%
c i 155.70 15226 198 0 5345 77662 63523 18% 3 69091231 24342226 82%
c i 155.75 15226 198 0 5355 77700 63559 18% 3 69091231 24342217 82%
c i 155.77 15226 198 0 5359 77714 63571 18% 3 69091231 24342206 82%
c i 155.79 15226 197 0 5363 77728 63584 18% 3 69091231 24342199 82%
c i 155.79 15226 197 0 5363 77729 63584 18% 3 69091231 24342196 82%
c i 155.79 15226 197 0 5363 77730 63584 18% 3 69091231 24342193 82%
c i 155.86 15226 198 0 5368 77786 63632 18% 3 69091231 24342178 82%
c i 155.86 15226 198 0 5369 77794 63637 18% 3 69091231 24342173 82%
